100
128
44
18
14
4
23
43
41
1
4
4
34
39
57
54
47
4
55
21
26
12
33
21
11
10
51
46
14
19
1
45
13
29
42
52
12
23
51
34
16
61
1
20
31
13
17
28
3
19
19
39
16
12
35
48
25
1
31
32
24
4
18
3
12
44
41
32
31
14
3
23
25
26
50
18
18
40
22
45
20
31
21
27
29
9
35
23
22
2
28
58
39
57
18
19
33
35
30
39
35
50